RT is False
Default write of storage_offers_DA.csv just to have a file (but constraint should be inactive)
Reading model...
...model read.
creating competitive generators file...
...competitive generators recorded.
Loading data...
.. day-ahead data with real-time VRE data read.
Compiling instance...
...instance created.
Creating Offer Mitigation (model will solve as dispatch if TRUE)...
...storage offer mitigation file created
Converting model to MPEC...
...converted
NOTE: initial MIP solve with only storage competitive to get feasible solution
Solving...

Welcome to IBM(R) ILOG(R) CPLEX(R) Interactive Optimizer 12.9.0.0
  with Simplex, Mixed Integer & Barrier Optimizers
5725-A06 5725-A29 5724-Y48 5724-Y49 5724-Y54 5724-Y55 5655-Y21
Copyright IBM Corp. 1988, 2019.  All Rights Reserved.

Type 'help' for a list of available commands.
Type 'help' followed by a command name for more
information on commands.

CPLEX> Logfile 'cplex.log' closed.
Logfile 'C:\Users\llavin\Desktop\test826\logs\tmptb_00fde.cplex.log' open.
CPLEX> New value for parallel optimization mode: -1
CPLEX> New value for mixed integer optimality gap tolerance: 0.002
CPLEX> New value for emphasis for MIP optimization: 1
CPLEX> New value for integrality tolerance: 1e-12
CPLEX> New value for deterministic time limit in ticks: 100000
CPLEX> Problem 'C:\Users\llavin\Desktop\test826\logs\tmp0v60wjuv.pyomo.lp' read.
Read time = 0.23 sec. (14.73 ticks)
CPLEX> Problem name         : C:\Users\llavin\Desktop\test826\logs\tmp0v60wjuv.pyomo.lp
Objective sense      : Maximize
Variables            :   53805  [Nneg: 1,  Box: 22000,  Free: 4464,
                                 Binary: 27340]
Objective nonzeros   :    9029
Linear constraints   :  123205  [Less: 41346,  Greater: 59096,  Equal: 22763]
  Nonzeros           :  291753
  RHS nonzeros       :   67491

Variables            : Min LB: -5000.000        Max UB: 1000000.       
Objective nonzeros   : Min   : 0.07500000       Max   : 2500.000       
Linear constraints   :
  Nonzeros           : Min   : 0.07500000       Max   : 1000000.       
  RHS nonzeros       : Min   : 0.07500000       Max   : 1000000.       
CPLEX> CPXPARAM_Parallel                                -1
CPXPARAM_Emphasis_MIP                            1
CPXPARAM_DetTimeLimit                            100000
CPXPARAM_MIP_Tolerances_MIPGap                   0.002
CPXPARAM_MIP_Tolerances_Integrality              9.9999999999999998e-13
Tried aggregator 3 times.
MIP Presolve eliminated 88710 rows and 19034 columns.
MIP Presolve added 3371 rows and 0 columns.
MIP Presolve modified 24851 coefficients.
Aggregator did 12969 substitutions.
Reduced MIP has 24897 rows, 21246 columns, and 71010 nonzeros.
Reduced MIP has 8396 binaries, 0 generals, 0 SOSs, and 0 indicators.
Presolve time = 0.28 sec. (167.95 ticks)
Probing fixed 379 vars, tightened 4027 bounds.
Probing time = 0.06 sec. (18.50 ticks)
Tried aggregator 2 times.
MIP Presolve eliminated 853 rows and 759 columns.
MIP Presolve modified 3037 coefficients.
Aggregator did 35 substitutions.
Reduced MIP has 24009 rows, 20452 columns, and 68435 nonzeros.
Reduced MIP has 8017 binaries, 0 generals, 0 SOSs, and 0 indicators.
Presolve time = 0.11 sec. (89.16 ticks)
Probing fixed 0 vars, tightened 235 bounds.
Probing time = 0.14 sec. (22.38 ticks)
Clique table members: 44627.
MIP emphasis: integer feasibility.
MIP search method: dynamic search.
Parallel mode: opportunistic, using up to 32 threads.
Root relaxation solution time = 0.44 sec. (675.42 ticks)

        Nodes                                         Cuts/
   Node  Left     Objective  IInf  Best Integer    Best Bound    ItCnt     Gap

      0     0     3965.4494   107                   3965.4494     5669         
*     0+    0                         3964.3813     3965.4494             0.03%

Root node processing (before b&c):
  Real time             =    1.58 sec. (1343.20 ticks)
Parallel b&c, 32 threads:
  Real time             =    0.00 sec. (0.00 ticks)
  Sync time (average)   =    0.00 sec.
  Wait time (average)   =    0.00 sec.
                          ------------
Total (root+branch&cut) =    1.58 sec. (1343.20 ticks)

Solution pool: 1 solution saved.

MIP - Integer optimal, tolerance (0.002/1e-06):  Objective =  3.9643813170e+03
Current MIP best bound =  3.9654494451e+03 (gap = 1.06813, 0.03%)
Solution time =    1.61 sec.  Iterations = 5669  Nodes = 0 (1)
Deterministic time = 1343.35 ticks  (834.90 ticks/sec)

CPLEX> Incumbent solution written to file 'C:\Users\llavin\Desktop\test826\logs\tmp5ju9afee.cplex.sol'.
CPLEX> NOTE: no warmstart specified for MIP iteration, default behavior is true
NOTE: resolving with all competitive generators using storage-only solution to warmstart
Solving...

Welcome to IBM(R) ILOG(R) CPLEX(R) Interactive Optimizer 12.9.0.0
  with Simplex, Mixed Integer & Barrier Optimizers
5725-A06 5725-A29 5724-Y48 5724-Y49 5724-Y54 5724-Y55 5655-Y21
Copyright IBM Corp. 1988, 2019.  All Rights Reserved.

Type 'help' for a list of available commands.
Type 'help' followed by a command name for more
information on commands.

CPLEX> Logfile 'cplex.log' closed.
Logfile 'C:\Users\llavin\Desktop\test826\logs\tmp6m76932j.cplex.log' open.
CPLEX> New value for parallel optimization mode: -1
CPLEX> New value for mixed integer optimality gap tolerance: 0.002
CPLEX> New value for emphasis for MIP optimization: 1
CPLEX> New value for integrality tolerance: 1e-12
CPLEX> New value for deterministic time limit in ticks: 100000
CPLEX> Problem 'C:\Users\llavin\Desktop\test826\logs\tmpbscpkzf1.pyomo.lp' read.
Read time = 0.22 sec. (14.75 ticks)
CPLEX> MIP start file 'C:\Users\llavin\Desktop\test826\logs\tmpfyy5vzao.cplex.mst' read.
CPLEX> Problem name         : C:\Users\llavin\Desktop\test826\logs\tmpbscpkzf1.pyomo.lp
Objective sense      : Maximize
Variables            :   54525  [Nneg: 1,  Box: 22720,  Free: 4464,
                                 Binary: 27340]
Objective nonzeros   :    9725
Linear constraints   :  123205  [Less: 41346,  Greater: 59096,  Equal: 22763]
  Nonzeros           :  291753
  RHS nonzeros       :   67491

Variables            : Min LB: -5000.000        Max UB: 1000000.       
Objective nonzeros   : Min   : 0.07500000       Max   : 2500.000       
Linear constraints   :
  Nonzeros           : Min   : 0.07500000       Max   : 1000000.       
  RHS nonzeros       : Min   : 0.07500000       Max   : 1000000.       
CPLEX> CPXPARAM_Parallel                                -1
CPXPARAM_Emphasis_MIP                            1
CPXPARAM_DetTimeLimit                            100000
CPXPARAM_MIP_Tolerances_MIPGap                   0.002
CPXPARAM_MIP_Tolerances_Integrality              9.9999999999999998e-13
Warning:  No solution found from 1 MIP starts.
Retaining values of one MIP start for possible repair.
Tried aggregator 3 times.
MIP Presolve eliminated 88710 rows and 19754 columns.
MIP Presolve added 3371 rows and 0 columns.
MIP Presolve modified 24851 coefficients.
Aggregator did 12969 substitutions.
Reduced MIP has 24897 rows, 21246 columns, and 71010 nonzeros.
Reduced MIP has 8396 binaries, 0 generals, 0 SOSs, and 0 indicators.
Presolve time = 0.26 sec. (168.30 ticks)
Probing fixed 379 vars, tightened 4027 bounds.
Probing time = 0.08 sec. (18.50 ticks)
Tried aggregator 2 times.
MIP Presolve eliminated 853 rows and 759 columns.
MIP Presolve modified 3037 coefficients.
Aggregator did 35 substitutions.
Reduced MIP has 24009 rows, 20452 columns, and 68435 nonzeros.
Reduced MIP has 8017 binaries, 0 generals, 0 SOSs, and 0 indicators.
Presolve time = 0.11 sec. (89.17 ticks)
Probing fixed 0 vars, tightened 235 bounds.
Probing time = 0.13 sec. (22.38 ticks)
Clique table members: 44627.
MIP emphasis: integer feasibility.
MIP search method: dynamic search.
Parallel mode: opportunistic, using up to 32 threads.
Root relaxation solution time = 0.49 sec. (714.80 ticks)

        Nodes                                         Cuts/
   Node  Left     Objective  IInf  Best Integer    Best Bound    ItCnt     Gap

      0     0    82475.1342   306                  82475.1342     5989         
      0     0    82093.7808   113                    Cuts: 98     6054         
      0     0    82093.2087   111                    Cuts: 19     6068         
      0     0    82093.2087   111                   Covers: 1     6069         
Repair heuristic found nothing.
      0     2    82093.2087   111                 Impl Bds: 3     6069         
Elapsed time = 4.64 sec. (2067.08 ticks, tree = 0.02 MB, solutions = 0)
    756   493    81543.3652    76                  82062.7137     9047         
   1654   792    51239.0886    24                  82062.7137    11112         
*  1706+ 1514                        62537.1282    82062.7137            31.22%
*  2106  1496      integral     0    62601.3839    82062.7137    15904   31.09%
   2959  1746    62718.0942    45    62601.3839    82053.9552    29015   31.07%
   3864  2413    62604.2738    25    62601.3839    82050.0772    35739   31.07%
   4777  2498    62696.4051    40    62601.3839    82037.2462    36602   31.05%
   5869  2992    62633.3898    40    62601.3839    82037.2462    40319   31.05%
   6370  3488    62950.4392    32    62601.3839    82037.2462    43043   31.05%
   6444  4597        cutoff          62601.3839    63289.3020    61518    1.10%
Elapsed time = 18.95 sec. (6866.04 ticks, tree = 44.75 MB, solutions = 4)
  13268  2064        cutoff          62658.2547    62901.1533   104492    0.39%

Clique cuts applied:  6
Implied bound cuts applied:  11
Flow cuts applied:  36
Mixed integer rounding cuts applied:  20
Lift and project cuts applied:  9
Gomory fractional cuts applied:  14

Root node processing (before b&c):
  Real time             =    2.84 sec. (2015.99 ticks)
Parallel b&c, 32 threads:
  Real time             =   20.66 sec. (6360.45 ticks)
  Sync time (average)   =    1.02 sec.
  Wait time (average)   =    0.07 sec.
                          ------------
Total (root+branch&cut) =   23.50 sec. (8376.45 ticks)

Solution pool: 6 solutions saved.

MIP - Integer optimal, tolerance (0.002/1e-06):  Objective =  6.2658254654e+04
Current MIP best bound =  6.2783294627e+04 (gap = 125.04, 0.20%)
Solution time =   23.50 sec.  Iterations = 130912  Nodes = 15225 (3711)
Deterministic time = 8376.60 ticks  (356.45 ticks/sec)

CPLEX> Incumbent solution written to file 'C:\Users\llavin\Desktop\test826\logs\tmphlgdtio3.cplex.sol'.
CPLEX> Exporting results... 
